Ordonnancement/plne/source/petit_instance/4job/4job_9.dat
data;
param nombreJob := 4;
param nombreRessource := 3;
param duree := 1 8 2 3 3 1 4 1;
param capaciteRessource := 1 6 2 12 3 20;
param besoinRessource : 1 2 3 :=
                    1   1 8 8
                    2   3 3 9
                    3   4 4 3
                    4   3 4 9;
end;

