Ordonnancement/plne/source/glpk_resultat/4job/4job_9.sol
Problem:    glpsolRcpsp
Rows:       140
Columns:    53 (52 integer, 52 binary)
Non-zeros:  665
Status:     INTEGER OPTIMAL
Objective:  obj = 8 (MINimum)

   No.   Row name        Activity     Lower bound   Upper bound
------ ------------    ------------- ------------- -------------
     1 periode[1]                  8             8             = 
     2 periode[2]                  3             3             = 
     3 periode[3]                  1             1             = 
     4 periode[4]                  1             1             = 
     5 complet[1,1]                6                           8 
     6 complet[1,2]                5                           8 
     7 complet[1,3]                4                           8 
     8 complet[1,4]                3                           8 
     9 complet[1,5]                2                           8 
    10 complet[1,6]                1                           8 
    11 complet[1,7]                0                           8 
    12 complet[1,8]                8                           8 
    13 complet[1,9]                0                           8 
    14 complet[1,10]
                                   0                           8 
    15 complet[1,11]
                                   0                           8 
    16 complet[2,1]                1                           3 
    17 complet[2,2]                0                           3 
    18 complet[2,3]                3                           3 
    19 complet[2,4]                0                           3 
    20 complet[2,5]                0                           3 
    21 complet[2,6]                0                           3 
    22 complet[2,7]                0                           3 
    23 complet[2,8]                0                           3 
    24 complet[2,9]                0                           3 
    25 complet[2,10]
                                   0                           3 
    26 complet[2,11]
                                   0                           3 
    27 complet[3,1]                1                           1 
    28 complet[3,2]                1                           1 
    29 complet[3,3]               -1                           1 
    30 complet[3,4]                1                           1 
    31 complet[3,5]                0                           1 
    32 complet[3,6]                0                           1 
    33 complet[3,7]                0                           1 
    34 complet[3,8]                0                           1 
    35 complet[3,9]                0                           1 
    36 complet[3,10]
                                   0                           1 
    37 complet[3,11]
                                   0                           1 
    38 complet[4,1]                1                           1 
    39 complet[4,2]                1                           1 
    40 complet[4,3]                1                           1 
    41 complet[4,4]               -1                           1 
    42 complet[4,5]                1                           1 
    43 complet[4,6]                0                           1 
    44 complet[4,7]                0                           1 
    45 complet[4,8]                0                           1 
    46 complet[4,9]                0                           1 
    47 complet[4,10]
                                   0                           1 
    48 complet[4,11]
                                   0                           1 
    49 cmax[1,1]                   7            -0               
    50 cmax[1,2]                   6            -0               
    51 cmax[1,3]                   5            -0               
    52 cmax[1,4]                   4            -0               
    53 cmax[1,5]                   3            -0               
    54 cmax[1,6]                   2            -0               
    55 cmax[1,7]                   1            -0               
    56 cmax[1,8]                   0            -0               
    57 cmax[1,9]                   8            -0               
    58 cmax[1,10]                  8            -0               
    59 cmax[1,11]                  8            -0               
    60 cmax[1,12]                  8            -0               
    61 cmax[1,13]                  8            -0               
    62 cmax[2,1]                   7            -0               
    63 cmax[2,2]                   6            -0               
    64 cmax[2,3]                   5            -0               
    65 cmax[2,4]                   8            -0               
    66 cmax[2,5]                   8            -0               
    67 cmax[2,6]                   8            -0               
    68 cmax[2,7]                   8            -0               
    69 cmax[2,8]                   8            -0               
    70 cmax[2,9]                   8            -0               
    71 cmax[2,10]                  8            -0               
    72 cmax[2,11]                  8            -0               
    73 cmax[2,12]                  8            -0               
    74 cmax[2,13]                  8            -0               
    75 cmax[3,1]                   8            -0               
    76 cmax[3,2]                   8            -0               
    77 cmax[3,3]                   8            -0               
    78 cmax[3,4]                   4            -0               
    79 cmax[3,5]                   8            -0               
    80 cmax[3,6]                   8            -0               
    81 cmax[3,7]                   8            -0               
    82 cmax[3,8]                   8            -0               
    83 cmax[3,9]                   8            -0               
    84 cmax[3,10]                  8            -0               
    85 cmax[3,11]                  8            -0               
    86 cmax[3,12]                  8            -0               
    87 cmax[3,13]                  8            -0               
    88 cmax[4,1]                   8            -0               
    89 cmax[4,2]                   8            -0               
    90 cmax[4,3]                   8            -0               
    91 cmax[4,4]                   8            -0               
    92 cmax[4,5]                   3            -0               
    93 cmax[4,6]                   8            -0               
    94 cmax[4,7]                   8            -0               
    95 cmax[4,8]                   8            -0               
    96 cmax[4,9]                   8            -0               
    97 cmax[4,10]                  8            -0               
    98 cmax[4,11]                  8            -0               
    99 cmax[4,12]                  8            -0               
   100 cmax[4,13]                  8            -0               
   101 ressource[1,1]
                                   4                           6 
   102 ressource[1,2]
                                   4                           6 
   103 ressource[1,3]
                                   4                           6 
   104 ressource[1,4]
                                   5                           6 
   105 ressource[1,5]
                                   4                           6 
   106 ressource[1,6]
                                   1                           6 
   107 ressource[1,7]
                                   1                           6 
   108 ressource[1,8]
                                   1                           6 
   109 ressource[1,9]
                                   0                           6 
   110 ressource[1,10]
                                   0                           6 
   111 ressource[1,11]
                                   0                           6 
   112 ressource[1,12]
                                   0                           6 
   113 ressource[1,13]
                                   0                           6 
   114 ressource[2,1]
                                  11                          12 
   115 ressource[2,2]
                                  11                          12 
   116 ressource[2,3]
                                  11                          12 
   117 ressource[2,4]
                                  12                          12 
   118 ressource[2,5]
                                  12                          12 
   119 ressource[2,6]
                                   8                          12 
   120 ressource[2,7]
                                   8                          12 
   121 ressource[2,8]
                                   8                          12 
   122 ressource[2,9]
                                   0                          12 
   123 ressource[2,10]
                                   0                          12 
   124 ressource[2,11]
                                   0                          12 
   125 ressource[2,12]
                                   0                          12 
   126 ressource[2,13]
                                   0                          12 
   127 ressource[3,1]
                                  17                          20 
   128 ressource[3,2]
                                  17                          20 
   129 ressource[3,3]
                                  17                          20 
   130 ressource[3,4]
                                  11                          20 
   131 ressource[3,5]
                                  17                          20 
   132 ressource[3,6]
                                   8                          20 
   133 ressource[3,7]
                                   8                          20 
   134 ressource[3,8]
                                   8                          20 
   135 ressource[3,9]
                                   0                          20 
   136 ressource[3,10]
                                   0                          20 
   137 ressource[3,11]
                                   0                          20 
   138 ressource[3,12]
                                   0                          20 
   139 ressource[3,13]
                                   0                          20 
   140 obj                         8                             

   No. Column name       Activity     Lower bound   Upper bound
------ ------------    ------------- ------------- -------------
     1 x[1,1]       *              1             0             1 
     2 x[1,2]       *              1             0             1 
     3 x[1,3]       *              1             0             1 
     4 x[1,4]       *              1             0             1 
     5 x[1,5]       *              1             0             1 
     6 x[1,6]       *              1             0             1 
     7 x[1,7]       *              1             0             1 
     8 x[1,8]       *              1             0             1 
     9 x[1,9]       *              0             0             1 
    10 x[1,10]      *              0             0             1 
    11 x[1,11]      *              0             0             1 
    12 x[1,12]      *              0             0             1 
    13 x[1,13]      *              0             0             1 
    14 x[2,1]       *              1             0             1 
    15 x[2,2]       *              1             0             1 
    16 x[2,3]       *              1             0             1 
    17 x[2,4]       *              0             0             1 
    18 x[2,5]       *              0             0             1 
    19 x[2,6]       *              0             0             1 
    20 x[2,7]       *              0             0             1 
    21 x[2,8]       *              0             0             1 
    22 x[2,9]       *              0             0             1 
    23 x[2,10]      *              0             0             1 
    24 x[2,11]      *              0             0             1 
    25 x[2,12]      *              0             0             1 
    26 x[2,13]      *              0             0             1 
    27 x[3,1]       *              0             0             1 
    28 x[3,2]       *              0             0             1 
    29 x[3,3]       *              0             0             1 
    30 x[3,4]       *              1             0             1 
    31 x[3,5]       *              0             0             1 
    32 x[3,6]       *              0             0             1 
    33 x[3,7]       *              0             0             1 
    34 x[3,8]       *              0             0             1 
    35 x[3,9]       *              0             0             1 
    36 x[3,10]      *              0             0             1 
    37 x[3,11]      *              0             0             1 
    38 x[3,12]      *              0             0             1 
    39 x[3,13]      *              0             0             1 
    40 x[4,1]       *              0             0             1 
    41 x[4,2]       *              0             0             1 
    42 x[4,3]       *              0             0             1 
    43 x[4,4]       *              0             0             1 
    44 x[4,5]       *              1             0             1 
    45 x[4,6]       *              0             0             1 
    46 x[4,7]       *              0             0             1 
    47 x[4,8]       *              0             0             1 
    48 x[4,9]       *              0             0             1 
    49 x[4,10]      *              0             0             1 
    50 x[4,11]      *              0             0             1 
    51 x[4,12]      *              0             0             1 
    52 x[4,13]      *              0             0             1 
    53 z                           8                             

Integer feasibility conditions:

KKT.PE: max.abs.err = 0.00e+00 on row 0
        max.rel.err = 0.00e+00 on row 0
        High quality

KKT.PB: max.abs.err = 0.00e+00 on row 0
        max.rel.err = 0.00e+00 on row 0
        High quality

End of output
